Minimize
	value: tt

Subject to
tt + 1000 s_1_1 > 0.0
tt - t_1_1 - 1000.386662 s_1_1  + 0.386662 s_1_7  > -999.593478
tt + 1000 s_2_1 > 0.0
tt - t_2_1 - 1000.425571 s_2_1  + 0.425571 s_2_7  > -995.916661
tt + 1000 s_1_2 > 0.0
tt - t_1_2 - 1000.386662 s_1_2  + 0.386662 s_1_8  > -999.498944
tt + 1000 s_2_2 > 0.0
tt - t_2_2 - 1000.425571 s_2_2  + 0.425571 s_2_8  > -995.581056
tt + 1000 s_1_3 > 0.0
tt - t_1_3 - 1000.386662 s_1_3  + 0.386662 s_1_8  > -999.409933
tt + 1000 s_2_3 > 0.0
tt - t_2_3 - 1000.425571 s_2_3  + 0.425571 s_2_8  > -994.341986
tt + 1000 s_1_4 > 0.0
tt - t_1_4 - 1000.666386 s_1_4  + 0.386662 s_1_8  + 0.279724 s_1_3  > -999.711789
tt + 1000 s_2_4 > 0.0
tt - t_2_4 - 1000.699031 s_2_4  + 0.425571 s_2_8  + 0.273460 s_2_3  > -996.182925
tt + 1000 s_1_5 > 0.0
tt - t_1_5 - 1000.773324 s_1_5  + 0.386662 s_1_7  + 0.386662 s_1_8  > -999.601300
tt + 1000 s_2_5 > 0.0
tt - t_2_5 - 1000.851143 s_2_5  + 0.425571 s_2_7  + 0.425571 s_2_8  > -996.091433
tt + 1000 s_1_6 > 0.0
tt - t_1_6 - 1001.398618 s_1_6  + 0.279724 s_1_4  + 0.279724 s_1_5  + 0.279724 s_1_2  + 0.279724 s_1_1  + 0.279724 s_1_3  > -999.934300
tt + 1000 s_2_6 > 0.0
tt - t_2_6 - 1001.367299 s_2_6  + 0.273460 s_2_4  + 0.273460 s_2_5  + 0.273460 s_2_2  + 0.273460 s_2_1  + 0.273460 s_2_3  > -997.456300
tt + 1000 s_1_7 > 0.0
tt - t_1_7 - 1000.000000 s_1_7  > -999.031600
tt + 1000 s_2_7 > 0.0
tt - t_2_7 - 1000.000000 s_2_7  > -997.886633
tt + 1000 s_1_8 > 0.0
tt - t_1_8 - 1000.000000 s_1_8  > -998.947600
tt + 1000 s_2_8 > 0.0
tt - t_2_8 - 1000.000000 s_2_8  > -997.460889
s_1_1 + s_2_1 = 1
s_1_2 + s_2_2 = 1
s_1_3 + s_2_3 = 1
s_1_4 + s_2_4 = 1
s_1_5 + s_2_5 = 1
s_1_6 + s_2_6 = 1
s_1_7 + s_2_7 = 1
s_1_8 + s_2_8 = 1
s_1_1 + s_1_2 + 1000 r_1_1_2 >= 2
- s_1_1 - s_1_2 - 1000 r_1_1_2 >= -1001
t_1_1 - t_1_2 - 1000.000000 u_1_1_2 - 0.386662 s_1_2  + 0.386662 s_1_8  + 2000.000000 r_1_1_2 > -999.498944
s_2_1 + s_2_2 + 1000 r_2_1_2 >= 2
- s_2_1 - s_2_2 - 1000 r_2_1_2 >= -1001
t_2_1 - t_2_2 - 1000.000000 u_2_1_2 - 0.425571 s_2_2  + 0.425571 s_2_8  + 2000.000000 r_2_1_2 > -995.581056
s_1_1 + s_1_3 + 1000 r_1_1_3 >= 2
- s_1_1 - s_1_3 - 1000 r_1_1_3 >= -1001
t_1_1 - t_1_3 - 1000.000000 u_1_1_3 - 0.386662 s_1_3  + 0.386662 s_1_8  + 2000.000000 r_1_1_3 > -999.409933
s_2_1 + s_2_3 + 1000 r_2_1_3 >= 2
- s_2_1 - s_2_3 - 1000 r_2_1_3 >= -1001
t_2_1 - t_2_3 - 1000.000000 u_2_1_3 - 0.425571 s_2_3  + 0.425571 s_2_8  + 2000.000000 r_2_1_3 > -994.341986
s_1_1 + s_1_4 + 1000 r_1_1_4 >= 2
- s_1_1 - s_1_4 - 1000 r_1_1_4 >= -1001
t_1_1 - t_1_4 - 1000.000000 u_1_1_4 - 0.666386 s_1_4  + 0.386662 s_1_8  + 0.279724 s_1_3  + 2000.000000 r_1_1_4 > -999.711789
s_2_1 + s_2_4 + 1000 r_2_1_4 >= 2
- s_2_1 - s_2_4 - 1000 r_2_1_4 >= -1001
t_2_1 - t_2_4 - 1000.000000 u_2_1_4 - 0.699031 s_2_4  + 0.425571 s_2_8  + 0.273460 s_2_3  + 2000.000000 r_2_1_4 > -996.182925
s_1_1 + s_1_5 + 1000 r_1_1_5 >= 2
- s_1_1 - s_1_5 - 1000 r_1_1_5 >= -1001
t_1_1 - t_1_5 - 1000.000000 u_1_1_5 - 0.773324 s_1_5  + 0.386662 s_1_7  + 0.386662 s_1_8  + 2000.000000 r_1_1_5 > -999.601300
s_2_1 + s_2_5 + 1000 r_2_1_5 >= 2
- s_2_1 - s_2_5 - 1000 r_2_1_5 >= -1001
t_2_1 - t_2_5 - 1000.000000 u_2_1_5 - 0.851143 s_2_5  + 0.425571 s_2_7  + 0.425571 s_2_8  + 2000.000000 r_2_1_5 > -996.091433
t_1_6 - t_1_1 - 1000.386662 s_1_1  + 0.386662 s_1_7  > -999.593478
t_1_6 - t_2_1 - 1000.425571 s_2_1  + 0.425571 s_2_7  > -995.916661
t_2_6 - t_1_1 - 1000.386662 s_1_1  + 0.386662 s_1_7  > -999.593478
t_2_6 - t_2_1 - 1000.425571 s_2_1  + 0.425571 s_2_7  > -995.916661
t_1_1 - t_1_7 - 1000.000000 s_1_7  > -999.031600
t_1_1 - t_2_7 - 1000.000000 s_2_7  > -997.886633
t_2_1 - t_1_7 - 1000.000000 s_1_7  > -999.031600
t_2_1 - t_2_7 - 1000.000000 s_2_7  > -997.886633
s_1_1 + s_1_8 + 1000 r_1_1_8 >= 2
- s_1_1 - s_1_8 - 1000 r_1_1_8 >= -1001
t_1_1 - t_1_8 - 1000.000000 u_1_1_8 - 0.000000 s_1_8  + 2000.000000 r_1_1_8 > -998.947600
s_2_1 + s_2_8 + 1000 r_2_1_8 >= 2
- s_2_1 - s_2_8 - 1000 r_2_1_8 >= -1001
t_2_1 - t_2_8 - 1000.000000 u_2_1_8 - 0.000000 s_2_8  + 2000.000000 r_2_1_8 > -997.460889
s_1_2 + s_1_1 + 1000 r_1_1_2 >= 2
- s_1_2 - s_1_1 - 1000 r_1_1_2 >= -1001
t_1_2 - t_1_1 + 1000.000000 u_1_1_2 - 0.386662 s_1_1  + 0.386662 s_1_7  + 2000.000000 r_1_1_2 > 0.406522
s_2_2 + s_2_1 + 1000 r_2_1_2 >= 2
- s_2_2 - s_2_1 - 1000 r_2_1_2 >= -1001
t_2_2 - t_2_1 + 1000.000000 u_2_1_2 - 0.425571 s_2_1  + 0.425571 s_2_7  + 2000.000000 r_2_1_2 > 4.083339
s_1_2 + s_1_3 + 1000 r_1_2_3 >= 2
- s_1_2 - s_1_3 - 1000 r_1_2_3 >= -1001
t_1_2 - t_1_3 - 1000.000000 u_1_2_3 - 0.386662 s_1_3  + 0.386662 s_1_8  + 2000.000000 r_1_2_3 > -999.409933
s_2_2 + s_2_3 + 1000 r_2_2_3 >= 2
- s_2_2 - s_2_3 - 1000 r_2_2_3 >= -1001
t_2_2 - t_2_3 - 1000.000000 u_2_2_3 - 0.425571 s_2_3  + 0.425571 s_2_8  + 2000.000000 r_2_2_3 > -994.341986
s_1_2 + s_1_4 + 1000 r_1_2_4 >= 2
- s_1_2 - s_1_4 - 1000 r_1_2_4 >= -1001
t_1_2 - t_1_4 - 1000.000000 u_1_2_4 - 0.666386 s_1_4  + 0.386662 s_1_8  + 0.279724 s_1_3  + 2000.000000 r_1_2_4 > -999.711789
s_2_2 + s_2_4 + 1000 r_2_2_4 >= 2
- s_2_2 - s_2_4 - 1000 r_2_2_4 >= -1001
t_2_2 - t_2_4 - 1000.000000 u_2_2_4 - 0.699031 s_2_4  + 0.425571 s_2_8  + 0.273460 s_2_3  + 2000.000000 r_2_2_4 > -996.182925
s_1_2 + s_1_5 + 1000 r_1_2_5 >= 2
- s_1_2 - s_1_5 - 1000 r_1_2_5 >= -1001
t_1_2 - t_1_5 - 1000.000000 u_1_2_5 - 0.773324 s_1_5  + 0.386662 s_1_7  + 0.386662 s_1_8  + 2000.000000 r_1_2_5 > -999.601300
s_2_2 + s_2_5 + 1000 r_2_2_5 >= 2
- s_2_2 - s_2_5 - 1000 r_2_2_5 >= -1001
t_2_2 - t_2_5 - 1000.000000 u_2_2_5 - 0.851143 s_2_5  + 0.425571 s_2_7  + 0.425571 s_2_8  + 2000.000000 r_2_2_5 > -996.091433
t_1_6 - t_1_2 - 1000.386662 s_1_2  + 0.386662 s_1_8  > -999.498944
t_1_6 - t_2_2 - 1000.425571 s_2_2  + 0.425571 s_2_8  > -995.581056
t_2_6 - t_1_2 - 1000.386662 s_1_2  + 0.386662 s_1_8  > -999.498944
t_2_6 - t_2_2 - 1000.425571 s_2_2  + 0.425571 s_2_8  > -995.581056
s_1_2 + s_1_7 + 1000 r_1_2_7 >= 2
- s_1_2 - s_1_7 - 1000 r_1_2_7 >= -1001
t_1_2 - t_1_7 - 1000.000000 u_1_2_7 - 0.000000 s_1_7  + 2000.000000 r_1_2_7 > -999.031600
s_2_2 + s_2_7 + 1000 r_2_2_7 >= 2
- s_2_2 - s_2_7 - 1000 r_2_2_7 >= -1001
t_2_2 - t_2_7 - 1000.000000 u_2_2_7 - 0.000000 s_2_7  + 2000.000000 r_2_2_7 > -997.886633
t_1_2 - t_1_8 - 1000.000000 s_1_8  > -998.947600
t_1_2 - t_2_8 - 1000.000000 s_2_8  > -997.460889
t_2_2 - t_1_8 - 1000.000000 s_1_8  > -998.947600
t_2_2 - t_2_8 - 1000.000000 s_2_8  > -997.460889
s_1_3 + s_1_1 + 1000 r_1_1_3 >= 2
- s_1_3 - s_1_1 - 1000 r_1_1_3 >= -1001
t_1_3 - t_1_1 + 1000.000000 u_1_1_3 - 0.386662 s_1_1  + 0.386662 s_1_7  + 2000.000000 r_1_1_3 > 0.406522
s_2_3 + s_2_1 + 1000 r_2_1_3 >= 2
- s_2_3 - s_2_1 - 1000 r_2_1_3 >= -1001
t_2_3 - t_2_1 + 1000.000000 u_2_1_3 - 0.425571 s_2_1  + 0.425571 s_2_7  + 2000.000000 r_2_1_3 > 4.083339
s_1_3 + s_1_2 + 1000 r_1_2_3 >= 2
- s_1_3 - s_1_2 - 1000 r_1_2_3 >= -1001
t_1_3 - t_1_2 + 1000.000000 u_1_2_3 - 0.386662 s_1_2  + 0.386662 s_1_8  + 2000.000000 r_1_2_3 > 0.501056
s_2_3 + s_2_2 + 1000 r_2_2_3 >= 2
- s_2_3 - s_2_2 - 1000 r_2_2_3 >= -1001
t_2_3 - t_2_2 + 1000.000000 u_2_2_3 - 0.425571 s_2_2  + 0.425571 s_2_8  + 2000.000000 r_2_2_3 > 4.418944
t_1_4 - t_1_3 - 1000.386662 s_1_3  + 0.386662 s_1_8  > -999.409933
t_1_4 - t_2_3 - 1000.425571 s_2_3  + 0.425571 s_2_8  > -994.341986
t_2_4 - t_1_3 - 1000.386662 s_1_3  + 0.386662 s_1_8  > -999.409933
t_2_4 - t_2_3 - 1000.425571 s_2_3  + 0.425571 s_2_8  > -994.341986
s_1_3 + s_1_5 + 1000 r_1_3_5 >= 2
- s_1_3 - s_1_5 - 1000 r_1_3_5 >= -1001
t_1_3 - t_1_5 - 1000.000000 u_1_3_5 - 0.773324 s_1_5  + 0.386662 s_1_7  + 0.386662 s_1_8  + 2000.000000 r_1_3_5 > -999.601300
s_2_3 + s_2_5 + 1000 r_2_3_5 >= 2
- s_2_3 - s_2_5 - 1000 r_2_3_5 >= -1001
t_2_3 - t_2_5 - 1000.000000 u_2_3_5 - 0.851143 s_2_5  + 0.425571 s_2_7  + 0.425571 s_2_8  + 2000.000000 r_2_3_5 > -996.091433
t_1_6 - t_1_3 - 1000.386662 s_1_3  + 0.386662 s_1_8  > -999.409933
t_1_6 - t_2_3 - 1000.425571 s_2_3  + 0.425571 s_2_8  > -994.341986
t_2_6 - t_1_3 - 1000.386662 s_1_3  + 0.386662 s_1_8  > -999.409933
t_2_6 - t_2_3 - 1000.425571 s_2_3  + 0.425571 s_2_8  > -994.341986
s_1_3 + s_1_7 + 1000 r_1_3_7 >= 2
- s_1_3 - s_1_7 - 1000 r_1_3_7 >= -1001
t_1_3 - t_1_7 - 1000.000000 u_1_3_7 - 0.000000 s_1_7  + 2000.000000 r_1_3_7 > -999.031600
s_2_3 + s_2_7 + 1000 r_2_3_7 >= 2
- s_2_3 - s_2_7 - 1000 r_2_3_7 >= -1001
t_2_3 - t_2_7 - 1000.000000 u_2_3_7 - 0.000000 s_2_7  + 2000.000000 r_2_3_7 > -997.886633
t_1_3 - t_1_8 - 1000.000000 s_1_8  > -998.947600
t_1_3 - t_2_8 - 1000.000000 s_2_8  > -997.460889
t_2_3 - t_1_8 - 1000.000000 s_1_8  > -998.947600
t_2_3 - t_2_8 - 1000.000000 s_2_8  > -997.460889
s_1_4 + s_1_1 + 1000 r_1_1_4 >= 2
- s_1_4 - s_1_1 - 1000 r_1_1_4 >= -1001
t_1_4 - t_1_1 + 1000.000000 u_1_1_4 - 0.386662 s_1_1  + 0.386662 s_1_7  + 2000.000000 r_1_1_4 > 0.406522
s_2_4 + s_2_1 + 1000 r_2_1_4 >= 2
- s_2_4 - s_2_1 - 1000 r_2_1_4 >= -1001
t_2_4 - t_2_1 + 1000.000000 u_2_1_4 - 0.425571 s_2_1  + 0.425571 s_2_7  + 2000.000000 r_2_1_4 > 4.083339
s_1_4 + s_1_2 + 1000 r_1_2_4 >= 2
- s_1_4 - s_1_2 - 1000 r_1_2_4 >= -1001
t_1_4 - t_1_2 + 1000.000000 u_1_2_4 - 0.386662 s_1_2  + 0.386662 s_1_8  + 2000.000000 r_1_2_4 > 0.501056
s_2_4 + s_2_2 + 1000 r_2_2_4 >= 2
- s_2_4 - s_2_2 - 1000 r_2_2_4 >= -1001
t_2_4 - t_2_2 + 1000.000000 u_2_2_4 - 0.425571 s_2_2  + 0.425571 s_2_8  + 2000.000000 r_2_2_4 > 4.418944
s_1_4 + s_1_5 + 1000 r_1_4_5 >= 2
- s_1_4 - s_1_5 - 1000 r_1_4_5 >= -1001
t_1_4 - t_1_5 - 1000.000000 u_1_4_5 - 0.773324 s_1_5  + 0.386662 s_1_7  + 0.386662 s_1_8  + 2000.000000 r_1_4_5 > -999.601300
s_2_4 + s_2_5 + 1000 r_2_4_5 >= 2
- s_2_4 - s_2_5 - 1000 r_2_4_5 >= -1001
t_2_4 - t_2_5 - 1000.000000 u_2_4_5 - 0.851143 s_2_5  + 0.425571 s_2_7  + 0.425571 s_2_8  + 2000.000000 r_2_4_5 > -996.091433
t_1_6 - t_1_4 - 1000.666386 s_1_4  + 0.386662 s_1_8  + 0.279724 s_1_3  > -999.711789
t_1_6 - t_2_4 - 1000.699031 s_2_4  + 0.425571 s_2_8  + 0.273460 s_2_3  > -996.182925
t_2_6 - t_1_4 - 1000.666386 s_1_4  + 0.386662 s_1_8  + 0.279724 s_1_3  > -999.711789
t_2_6 - t_2_4 - 1000.699031 s_2_4  + 0.425571 s_2_8  + 0.273460 s_2_3  > -996.182925
s_1_4 + s_1_7 + 1000 r_1_4_7 >= 2
- s_1_4 - s_1_7 - 1000 r_1_4_7 >= -1001
t_1_4 - t_1_7 - 1000.000000 u_1_4_7 - 0.000000 s_1_7  + 2000.000000 r_1_4_7 > -999.031600
s_2_4 + s_2_7 + 1000 r_2_4_7 >= 2
- s_2_4 - s_2_7 - 1000 r_2_4_7 >= -1001
t_2_4 - t_2_7 - 1000.000000 u_2_4_7 - 0.000000 s_2_7  + 2000.000000 r_2_4_7 > -997.886633
t_1_4 - t_1_8 - 1000.000000 s_1_8  > -998.947600
t_1_4 - t_2_8 - 1000.000000 s_2_8  > -997.460889
t_2_4 - t_1_8 - 1000.000000 s_1_8  > -998.947600
t_2_4 - t_2_8 - 1000.000000 s_2_8  > -997.460889
s_1_5 + s_1_1 + 1000 r_1_1_5 >= 2
- s_1_5 - s_1_1 - 1000 r_1_1_5 >= -1001
t_1_5 - t_1_1 + 1000.000000 u_1_1_5 - 0.386662 s_1_1  + 0.386662 s_1_7  + 2000.000000 r_1_1_5 > 0.406522
s_2_5 + s_2_1 + 1000 r_2_1_5 >= 2
- s_2_5 - s_2_1 - 1000 r_2_1_5 >= -1001
t_2_5 - t_2_1 + 1000.000000 u_2_1_5 - 0.425571 s_2_1  + 0.425571 s_2_7  + 2000.000000 r_2_1_5 > 4.083339
s_1_5 + s_1_2 + 1000 r_1_2_5 >= 2
- s_1_5 - s_1_2 - 1000 r_1_2_5 >= -1001
t_1_5 - t_1_2 + 1000.000000 u_1_2_5 - 0.386662 s_1_2  + 0.386662 s_1_8  + 2000.000000 r_1_2_5 > 0.501056
s_2_5 + s_2_2 + 1000 r_2_2_5 >= 2
- s_2_5 - s_2_2 - 1000 r_2_2_5 >= -1001
t_2_5 - t_2_2 + 1000.000000 u_2_2_5 - 0.425571 s_2_2  + 0.425571 s_2_8  + 2000.000000 r_2_2_5 > 4.418944
s_1_5 + s_1_3 + 1000 r_1_3_5 >= 2
- s_1_5 - s_1_3 - 1000 r_1_3_5 >= -1001
t_1_5 - t_1_3 + 1000.000000 u_1_3_5 - 0.386662 s_1_3  + 0.386662 s_1_8  + 2000.000000 r_1_3_5 > 0.590067
s_2_5 + s_2_3 + 1000 r_2_3_5 >= 2
- s_2_5 - s_2_3 - 1000 r_2_3_5 >= -1001
t_2_5 - t_2_3 + 1000.000000 u_2_3_5 - 0.425571 s_2_3  + 0.425571 s_2_8  + 2000.000000 r_2_3_5 > 5.658014
s_1_5 + s_1_4 + 1000 r_1_4_5 >= 2
- s_1_5 - s_1_4 - 1000 r_1_4_5 >= -1001
t_1_5 - t_1_4 + 1000.000000 u_1_4_5 - 0.666386 s_1_4  + 0.386662 s_1_8  + 0.279724 s_1_3  + 2000.000000 r_1_4_5 > 0.288211
s_2_5 + s_2_4 + 1000 r_2_4_5 >= 2
- s_2_5 - s_2_4 - 1000 r_2_4_5 >= -1001
t_2_5 - t_2_4 + 1000.000000 u_2_4_5 - 0.699031 s_2_4  + 0.425571 s_2_8  + 0.273460 s_2_3  + 2000.000000 r_2_4_5 > 3.817075
t_1_6 - t_1_5 - 1000.773324 s_1_5  + 0.386662 s_1_7  + 0.386662 s_1_8  > -999.601300
t_1_6 - t_2_5 - 1000.851143 s_2_5  + 0.425571 s_2_7  + 0.425571 s_2_8  > -996.091433
t_2_6 - t_1_5 - 1000.773324 s_1_5  + 0.386662 s_1_7  + 0.386662 s_1_8  > -999.601300
t_2_6 - t_2_5 - 1000.851143 s_2_5  + 0.425571 s_2_7  + 0.425571 s_2_8  > -996.091433
t_1_5 - t_1_7 - 1000.000000 s_1_7  > -999.031600
t_1_5 - t_2_7 - 1000.000000 s_2_7  > -997.886633
t_2_5 - t_1_7 - 1000.000000 s_1_7  > -999.031600
t_2_5 - t_2_7 - 1000.000000 s_2_7  > -997.886633
t_1_5 - t_1_8 - 1000.000000 s_1_8  > -998.947600
t_1_5 - t_2_8 - 1000.000000 s_2_8  > -997.460889
t_2_5 - t_1_8 - 1000.000000 s_1_8  > -998.947600
t_2_5 - t_2_8 - 1000.000000 s_2_8  > -997.460889
s_1_7 + s_1_2 + 1000 r_1_2_7 >= 2
- s_1_7 - s_1_2 - 1000 r_1_2_7 >= -1001
t_1_7 - t_1_2 + 1000.000000 u_1_2_7 - 0.386662 s_1_2  + 0.386662 s_1_8  + 2000.000000 r_1_2_7 > 0.501056
s_2_7 + s_2_2 + 1000 r_2_2_7 >= 2
- s_2_7 - s_2_2 - 1000 r_2_2_7 >= -1001
t_2_7 - t_2_2 + 1000.000000 u_2_2_7 - 0.425571 s_2_2  + 0.425571 s_2_8  + 2000.000000 r_2_2_7 > 4.418944
s_1_7 + s_1_3 + 1000 r_1_3_7 >= 2
- s_1_7 - s_1_3 - 1000 r_1_3_7 >= -1001
t_1_7 - t_1_3 + 1000.000000 u_1_3_7 - 0.386662 s_1_3  + 0.386662 s_1_8  + 2000.000000 r_1_3_7 > 0.590067
s_2_7 + s_2_3 + 1000 r_2_3_7 >= 2
- s_2_7 - s_2_3 - 1000 r_2_3_7 >= -1001
t_2_7 - t_2_3 + 1000.000000 u_2_3_7 - 0.425571 s_2_3  + 0.425571 s_2_8  + 2000.000000 r_2_3_7 > 5.658014
s_1_7 + s_1_4 + 1000 r_1_4_7 >= 2
- s_1_7 - s_1_4 - 1000 r_1_4_7 >= -1001
t_1_7 - t_1_4 + 1000.000000 u_1_4_7 - 0.666386 s_1_4  + 0.386662 s_1_8  + 0.279724 s_1_3  + 2000.000000 r_1_4_7 > 0.288211
s_2_7 + s_2_4 + 1000 r_2_4_7 >= 2
- s_2_7 - s_2_4 - 1000 r_2_4_7 >= -1001
t_2_7 - t_2_4 + 1000.000000 u_2_4_7 - 0.699031 s_2_4  + 0.425571 s_2_8  + 0.273460 s_2_3  + 2000.000000 r_2_4_7 > 3.817075
s_1_7 + s_1_8 + 1000 r_1_7_8 >= 2
- s_1_7 - s_1_8 - 1000 r_1_7_8 >= -1001
t_1_7 - t_1_8 - 1000.000000 u_1_7_8 - 0.000000 s_1_8  + 2000.000000 r_1_7_8 > -998.947600
s_2_7 + s_2_8 + 1000 r_2_7_8 >= 2
- s_2_7 - s_2_8 - 1000 r_2_7_8 >= -1001
t_2_7 - t_2_8 - 1000.000000 u_2_7_8 - 0.000000 s_2_8  + 2000.000000 r_2_7_8 > -997.460889
s_1_8 + s_1_1 + 1000 r_1_1_8 >= 2
- s_1_8 - s_1_1 - 1000 r_1_1_8 >= -1001
t_1_8 - t_1_1 + 1000.000000 u_1_1_8 - 0.386662 s_1_1  + 0.386662 s_1_7  + 2000.000000 r_1_1_8 > 0.406522
s_2_8 + s_2_1 + 1000 r_2_1_8 >= 2
- s_2_8 - s_2_1 - 1000 r_2_1_8 >= -1001
t_2_8 - t_2_1 + 1000.000000 u_2_1_8 - 0.425571 s_2_1  + 0.425571 s_2_7  + 2000.000000 r_2_1_8 > 4.083339
s_1_8 + s_1_7 + 1000 r_1_7_8 >= 2
- s_1_8 - s_1_7 - 1000 r_1_7_8 >= -1001
t_1_8 - t_1_7 + 1000.000000 u_1_7_8 - 0.000000 s_1_7  + 2000.000000 r_1_7_8 > 0.968400
s_2_8 + s_2_7 + 1000 r_2_7_8 >= 2
- s_2_8 - s_2_7 - 1000 r_2_7_8 >= -1001
t_2_8 - t_2_7 + 1000.000000 u_2_7_8 - 0.000000 s_2_7  + 2000.000000 r_2_7_8 > 2.113367
Binary
s_1_1
s_2_1
s_1_2
s_2_2
s_1_3
s_2_3
s_1_4
s_2_4
s_1_5
s_2_5
s_1_6
s_2_6
s_1_7
s_2_7
s_1_8
s_2_8
u_1_1_2
r_1_1_2
u_2_1_2
r_2_1_2
u_1_1_3
r_1_1_3
u_2_1_3
r_2_1_3
u_1_1_4
r_1_1_4
u_2_1_4
r_2_1_4
u_1_1_5
r_1_1_5
u_2_1_5
r_2_1_5
u_1_1_8
r_1_1_8
u_2_1_8
r_2_1_8
u_1_2_3
r_1_2_3
u_2_2_3
r_2_2_3
u_1_2_4
r_1_2_4
u_2_2_4
r_2_2_4
u_1_2_5
r_1_2_5
u_2_2_5
r_2_2_5
u_1_2_7
r_1_2_7
u_2_2_7
r_2_2_7
u_1_3_5
r_1_3_5
u_2_3_5
r_2_3_5
u_1_3_7
r_1_3_7
u_2_3_7
r_2_3_7
u_1_4_5
r_1_4_5
u_2_4_5
r_2_4_5
u_1_4_7
r_1_4_7
u_2_4_7
r_2_4_7
u_1_7_8
r_1_7_8
u_2_7_8
r_2_7_8

End
